multiobj/instances/uniform/Ter.6.2.0.40.1.in
6 2
0 598 743 1 484 832 
598 0 703 248 94 391 
743 703 0 593 298 516 
1 248 593 0 664 813 
484 94 298 664 0 822 
832 391 516 813 822 0 
0 943 409 701 746 149 
943 0 912 441 95 486 
409 912 0 169 154 47 
701 441 169 0 315 619 
746 95 154 315 0 213 
149 486 47 619 213 0 
0 902 685 473 896 252 
902 0 979 408 210 533 
685 979 0 490 468 386 
473 408 490 0 281 212 
896 210 468 281 0 110 
252 533 386 212 110 0 
