multiobj/solutions/Ter.6.2.0.40.1.out
3 2
1 3 0 4 5 2 
4796174 6456444 
1 3 0 5 4 2 
5060008 6323970 
3 1 4 2 0 5 
5159600 5954298 
